
Gurobi 10.0.3 (linux64, gurobi_cl) logging started Thu Nov  9 17:33:10 2023

Set parameter Username
Set parameter TimeLimit to value 3600
Set parameter LogFile to value "RCPSP_1378.log"
Set parameter Threads to value 32
Academic license - for non-commercial use only - expires 2024-11-06
Using license file /home/jrivera6/gurobi-licenses/v1003/compute-0-36/gurobi.lic

Gurobi Optimizer version 10.0.3 build v10.0.3rc0 (linux64)
Copyright (c) 2023, Gurobi Optimization, LLC

Read MPS format model from file RCPSP_1378.mps
Reading time = 0.14 seconds
RCPSP_1378: 42975 rows, 17020 columns, 151080 nonzeros

CPU model: Intel(R) Xeon(R) Gold 6130 CPU @ 2.10GHz, instruction set [SSE2|AVX|AVX2|AVX512]
Thread count: 32 physical cores, 32 logical processors, using up to 32 threads

Optimize a model with 42975 rows, 17020 columns and 151080 nonzeros
Model fingerprint: 0x5acc3fb4
Variable types: 92 continuous, 16928 integer (16928 binary)
Coefficient statistics:
  Matrix range     [1e+00, 5e+02]
  Objective range  [1e+00, 1e+00]
  Bounds range     [1e+00, 1e+00]
  RHS range        [1e+00, 5e+02]
Presolve removed 7284 rows and 1313 columns (presolve time = 5s) ...
Presolve removed 8319 rows and 2348 columns
Presolve time: 5.47s
Presolved: 34656 rows, 14672 columns, 126731 nonzeros
Variable types: 91 continuous, 14581 integer (14581 binary)

Deterministic concurrent LP optimizer: primal and dual simplex (primal and dual model)
Showing first log only...

Root relaxation presolved: 34656 rows, 14672 columns, 126731 nonzeros


Root simplex log...

Iteration    Objective       Primal Inf.    Dual Inf.      Time
       0    1.0606163e+02   7.269838e-03   9.046290e+07      7s
    1933    1.0500000e+02   0.000000e+00   0.000000e+00      7s
Concurrent spin time: 0.50s

Solved with dual simplex (dual model)

Root relaxation: objective 1.050000e+02, 16934 iterations, 1.60 seconds (0.14 work units)

    Nodes    |    Current Node    |     Objective Bounds      |     Work
 Expl Unexpl |  Obj  Depth IntInf | Incumbent    BestBd   Gap | It/Node Time

     0     0  105.00000    0    6          -  105.00000      -     -    9s
H    0     0                     105.0000000  105.00000  0.00%     -   19s

Cutting planes:
  Gomory: 1
  Cover: 1
  Implied bound: 1
  MIR: 1
  RLT: 27
  Relax-and-lift: 2

Explored 1 nodes (20758 simplex iterations) in 20.07 seconds (4.37 work units)
Thread count was 32 (of 32 available processors)

Solution count 1: 105 

Optimal solution found (tolerance 1.00e-04)
Best objective 1.050000000000e+02, best bound 1.050000000000e+02, gap 0.0000%

Wrote result file 'RCPSP_1378.sol'

